Instances/78
c numero: 78
c nombre: n-60-d-0.1
c densidad: 0.1
p edges 60 185
e 1 46
e 2 38
e 2 49
e 2 54
e 2 57
e 3 4
e 3 15
e 3 25
e 3 38
e 3 45
e 3 48
e 3 50
e 3 55
e 3 57
e 4 10
e 4 13
e 4 27
e 4 34
e 4 46
e 5 7
e 5 20
e 5 24
e 5 31
e 5 43
e 5 49
e 5 56
e 6 8
e 6 17
e 6 20
e 6 42
e 6 46
e 6 47
e 6 58
e 7 16
e 7 27
e 7 32
e 7 34
e 7 42
e 7 44
e 7 49
e 7 54
e 8 10
e 8 13
e 8 15
e 8 25
e 8 28
e 9 12
e 9 55
e 9 56
e 10 15
e 10 16
e 10 24
e 10 27
e 10 49
e 11 12
e 11 24
e 11 25
e 11 33
e 11 35
e 11 40
e 11 42
e 11 47
e 11 60
e 12 14
e 12 51
e 13 23
e 13 41
e 13 42
e 14 56
e 15 17
e 15 22
e 15 34
e 15 44
e 16 32
e 16 37
e 16 40
e 16 48
e 16 50
e 16 52
e 16 56
e 16 58
e 17 23
e 17 37
e 17 57
e 18 26
e 18 28
e 18 40
e 18 52
e 18 53
e 19 28
e 19 36
e 19 40
e 19 43
e 19 44
e 19 51
e 19 57
e 20 39
e 20 42
e 20 47
e 21 24
e 21 25
e 21 37
e 21 44
e 22 48
e 22 49
e 22 55
e 22 56
e 23 46
e 24 25
e 24 33
e 24 34
e 24 42
e 24 54
e 24 55
e 25 26
e 25 27
e 25 35
e 25 36
e 25 38
e 25 43
e 25 48
e 25 49
e 25 51
e 25 59
e 26 27
e 26 38
e 26 51
e 26 52
e 26 57
e 27 38
e 27 60
e 28 41
e 28 51
e 28 55
e 29 35
e 29 42
e 29 57
e 30 55
e 31 32
e 31 44
e 31 45
e 31 50
e 31 58
e 32 60
e 33 34
e 33 50
e 34 38
e 34 57
e 36 43
e 36 44
e 36 48
e 36 52
e 36 57
e 37 48
e 37 51
e 37 56
e 38 39
e 38 43
e 38 55
e 39 58
e 40 41
e 40 43
e 40 46
e 40 50
e 41 52
e 41 54
e 41 55
e 42 47
e 42 56
e 43 44
e 43 52
e 44 51
e 44 53
e 44 54
e 44 60
e 45 50
e 47 56
e 47 57
e 47 60
e 48 52
e 48 59
e 50 52
e 50 57
e 52 53
e 58 59
