res_brown_5min/78.out
colores promedio: 4.0000
tiempo promedio: 38.7600
instancias que se pasaron del tiempo: 0
